
Gurobi 9.5.0 (win64) logging started Thu Jun  9 11:40:35 2022

Set parameter LogFile to value "C:\Users\kmajd1\Documents\NNRepLayer_v2\demos\walking_example\dynamic_constraint\repair_net/logs/opt_log_6_9_2022_11_40_17.log"
Gurobi Optimizer version 9.5.0 build v9.5.0rc5 (win64)
Thread count: 8 physical cores, 16 logical processors, using up to 16 threads
Optimize a model with 876 rows, 304 columns and 2529 nonzeros
Model fingerprint: 0x8ce791ab
Model has 271 quadratic objective terms
Coefficient statistics:
  Matrix range     [3e-03, 2e+01]
  Objective range  [1e-02, 1e+00]
  QObjective range [7e-02, 2e+00]
  Bounds range     [5e+00, 5e+01]
  RHS range        [7e-04, 2e+01]
Presolve removed 560 rows and 12 columns
Presolve time: 0.01s
Presolved: 316 rows, 292 columns, 1981 nonzeros
Presolved model has 271 quadratic objective terms
Ordering time: 0.00s

Barrier statistics:
 Dense cols : 14
 AA' NZ     : 2.319e+03
 Factor NZ  : 3.212e+03
 Factor Ops : 5.422e+04 (less than 1 second per iteration)
 Threads    : 1

                  Objective                Residual
Iter       Primal          Dual         Primal    Dual     Compl     Time
   0   4.03051996e+07 -4.08238622e+07  3.62e+03 4.59e+02  9.50e+05     0s
   1   1.14378303e+07 -1.20589700e+07  1.88e+03 2.38e+02  5.01e+05     0s
   2   8.28745590e+05 -1.88546858e+06  5.04e+02 6.38e+01  1.70e+05     0s
   3   1.40876041e+02 -1.04259458e+06  2.05e+00 2.60e-01  2.32e+03     0s
   4   9.78447257e+01 -3.19039106e+05  4.18e-01 5.30e-02  5.61e+02     0s
   5   9.07967379e+01 -1.01464527e+05  9.52e-02 1.21e-02  1.67e+02     0s
   6   8.75071881e+01 -2.71337345e+03  8.53e-04 1.08e-04  4.42e+00     0s
   7   8.50306440e+01 -1.80074365e+02  7.75e-05 9.81e-06  4.18e-01     0s
   8   7.21711006e+01 -4.68264326e+01  2.26e-05 2.86e-06  1.88e-01     0s
   9   7.03062565e+01 -1.37714551e+01  9.81e-06 1.24e-06  1.33e-01     0s
  10   6.72800581e+01 -6.41584849e+00  7.74e-06 9.79e-07  1.16e-01     0s
  11   6.42972037e+01  3.94279977e+01  2.00e-06 2.53e-07  3.92e-02     0s
  12   6.31921036e+01  5.31979033e+01  6.83e-07 8.65e-08  1.58e-02     0s
  13   6.29221015e+01  6.03386020e+01  6.96e-13 2.33e-12  4.07e-03     0s
  14   6.27496398e+01  6.27142961e+01  7.82e-14 1.39e-12  5.57e-05     0s
  15   6.27483793e+01  6.27483431e+01  1.88e-13 1.10e-11  5.71e-08     0s
  16   6.27483780e+01  6.27483780e+01  8.57e-12 2.52e-11  5.71e-11     0s

Barrier solved model in 16 iterations and 0.05 seconds (0.00 work units)
Optimal objective 6.27483780e+01

